11
4 5 1 7 4 5 4 3 6 5 0 6 9 5 3 7 6 8 6 7 7 10 1 2 2 2 5 4 2 9 9 10 8 7 10 5 2 8 8 6 7 9 5 1 6 6 0 9 8 9 4 7 2 9 2 1 4 8 3 3 10 1 9 10 3 6 1 3 8 8 2 6 4 2 7 9 10 4 10 6 1 4 3 4 1 2 8 3 0 1 8 1 5 5 7 3 0 10 3 10